n = 70;
capacity = 100;
size = [80, 80, 80, 79, 79, 78, 76, 76, 75, 75, 75, 74, 72, 72, 72, 70, 68, 68, 67, 67, 66, 66, 65, 65, 64, 62, 62, 61, 61, 58, 58, 57, 56, 55, 52, 51, 51, 50, 49, 49, 49, 46, 43, 42, 40, 40, 40, 40, 39, 39, 38, 37, 36, 36, 36, 34, 34, 32, 28, 28, 26, 24, 24, 24, 24, 23, 22, 22, 21, 21];
